Please solve the following SAT Problem encoded in DIMACS format, only return a single solution assignment without explanations, if there is any: 
p cnf 10 50
9 10 -5 0
4 5 -9 0
2 5 3 0
5 1 3 0
3 -9 4 0
2 3 5 0
4 10 -7 0
4 8 2 0
3 -9 -6 0
-3 10 -7 0
-9 1 3 0
8 10 3 0
-6 -9 -7 0
3 8 10 0
4 -2 -9 0
-7 -9 3 0
6 9 2 0
10 -7 1 0
7 6 1 0
2 -9 1 0
-7 2 3 0
1 8 9 0
-2 1 -7 0
-6 -7 10 0
4 2 5 0
2 -8 5 0
1 -9 5 0
-4 10 6 0
1 4 8 0
10 8 -9 0
5 3 4 0
-10 1 5 0
-5 10 -6 0
3 7 1 0
2 8 6 0
-9 -6 5 0
1 3 8 0
-9 1 4 0
1 3 4 0
8 2 4 0
4 5 8 0
4 3 -7 0
10 3 4 0
5 10 1 0
5 -1 10 0
-9 -3 1 0
4 3 -10 0
-7 10 6 0
2 8 -7 0
-1 10 -7 0

